p tw 178 201
1 2
2 91
3 14
4 5
4 18
5 6
6 7
7 8
8 9
9 10
9 11
10 87
11 12
12 13
13 15
14 25
15 16
16 17
17 87
18 19
19 20
20 21
21 22
22 23
23 24
24 26
25 36
26 27
27 28
28 29
29 30
30 31
31 32
32 33
33 34
33 61
34 35
35 37
36 47
37 38
38 39
39 40
40 41
41 42
41 48
42 43
43 44
44 45
45 46
46 61
47 58
48 49
49 50
50 51
50 53
51 52
52 61
53 54
54 55
55 56
56 57
57 59
58 69
58 96
59 60
59 61
60 61
61 62
62 63
63 64
64 65
65 66
66 67
67 68
68 70
69 80
70 71
71 72
72 73
73 74
73 83
74 75
75 76
76 77
77 78
78 79
79 81
80 89
81 82
81 83
82 87
83 84
84 85
85 86
86 87
87 88
89 90
90 92
90 96
91 102
92 93
93 94
93 96
94 95
95 96
95 98
96 97
97 87
98 99
99 100
100 101
100 158
101 103
102 113
103 104
103 111
104 105
105 106
105 142
106 107
107 108
107 154
108 109
109 110
109 164
110 177
111 112
112 114
113 124
114 115
115 116
116 117
117 118
118 119
119 120
120 121
121 122
122 123
123 125
124 135
125 126
125 140
126 127
127 128
128 129
129 130
130 131
130 132
131 87
132 133
133 134
134 136
134 137
135 146
136 87
137 138
138 139
139 122
140 141
141 87
142 143
143 144
143 145
144 145
145 147
146 157
147 148
148 149
149 150
150 151
151 152
152 153
152 83
153 87
154 155
155 156
156 83
157 168
158 159
159 160
160 161
161 162
161 83
162 163
163 83
164 165
165 166
166 167
167 169
168 3
169 170
170 171
170 172
171 87
172 173
173 174
174 175
175 176
176 87
177 178
178 4
